150 10
3
77 36 4 2 27 30 75 80 14 7 63 99 2 16 17 91 16 80 21 99 27 37 44 41 94 91 80 29 17 18 52 15 43 55 49 2 76 27 98 58 65 67 43 32 92 16 40 98 8 14 27 13 8 12 61 62 45 32 13 94 44 37 69 25 78 12 99 21 30 74 46 57 19 40 31 38 82 50 80 16 82 35 65 13 91 36 44 92 24 69 63 44 46 78 96 67 52 70 62 10 77 86 83 38 86 77 58 98 10 50 11 46 48 90 72 14 24 18 59 9 25 48 36 81 12 80 67 55 63 92 71 96 72 20 38 48 99 42 2 4 31 86 52 2 29 92 78 88 80 33
664 664 712 639 1052 908 1032 930 681 821
0 0 0 0 0 0 95 0 0 0 87 0 26 0 0 0 0 0 0 0 3 0 46 0 0 0 0 0 0 0 0 0 65 0 0 0 0 0 0 0 0 0 0 0 0 0 0 0 25 0 0 0 51 0 0 0 0 0 68 0 0 0 0 0 0 0 0 0 0 1 0 0 0 0 0 0 0 0 0 0 0 0 0 44 0 0 62 0 0 0 0 0 0 0 0 0 0 23 0 0 0 74 0 44 0 91 0 0 0 0 0 0 0 0 0 0 0 0 10 0 0 0 0 0 0 0 0 0 0 0 0 0 0 0 46 0 0 0 0 0 0 0 0 0 0 0 0 0 0 0
0 0 0 0 0 0 0 0 0 0 0 0 0 0 28 0 0 0 0 0 0 0 0 0 0 0 0 0 0 0 0 0 0 0 88 0 0 0 0 0 0 0 0 0 42 0 0 0 0 0 0 72 0 0 0 51 96 0 0 0 26 0 70 0 30 0 0 0 0 0 0 0 0 29 0 0 0 0 0 0 0 0 0 0 0 0 0 0 0 0 0 0 0 0 0 0 0 0 0 0 77 0 15 0 0 0 0 0 0 0 0 0 0 0 0 0 0 0 0 12 0 0 0 0 0 0 0 0 59 50 0 0 51 62 0 0 63 0 0 0 0 0 0 0 0 0 0 0 0 0
72 19 0 29 0 30 2 0 0 0 0 0 0 0 0 0 0 30 66 0 0 33 0 0 33 0 0 0 67 89 0 0 0 0 0 0 0 64 0 0 0 0 0 0 0 0 0 0 0 0 0 0 0 0 0 0 0 0 0 0 0 0 59 0 0 0 66 0 0 0 0 0 0 13 0 0 0 0 0 0 6 0 0 0 0 0 95 66 0 0 0 37 0 0 0 15 0 0 0 0 0 0 0 0 0 0 0 0 0 0 0 0 0 0 0 0 0 25 0 0 22 0 82 0 0 12 0 0 0 0 0 0 0 0 0 0 0 0 0 0 0 0 0 0 0 0 0 0 0 0
0 84 0 0 0 0 75 0 0 0 0 5 0 67 0 0 0 0 91 0 0 62 0 0 0 0 0 0 0 0 0 0 0 0 0 0 28 0 33 0 6 54 0 0 0 0 0 0 35 0 1 0 0 0 0 21 0 0 0 0 0 0 0 0 0 0 0 0 0 0 0 0 0 0 0 0 0 0 0 0 0 0 0 0 0 0 0 0 0 0 0 0 0 0 0 0 0 0 0 0 73 0 18 13 0 0 0 0 0 26 0 0 0 0 56 0 0 0 0 0 0 0 0 0 0 0 0 45 0 0 0 92 0 0 0 0 0 0 0 7 0 0 0 0 0 0 0 0 0 0
0 0 0 0 12 0 0 0 0 47 0 0 0 0 0 0 0 0 0 0 0 0 0 89 0 0 0 91 0 0 0 0 0 0 77 0 0 0 0 45 0 0 0 54 8 0 0 92 69 0 0 0 0 0 67 0 10 0 0 0 0 0 0 11 0 0 0 0 17 0 33 0 0 10 0 39 54 0 0 0 0 0 0 61 20 0 97 0 0 0 0 0 48 0 0 0 22 97 0 11 0 0 71 0 48 0 0 0 85 0 0 41 0 0 0 0 0 0 98 0 0 0 0 0 0 0 0 0 0 0 0 0 9 0 0 0 0 0 0 0 12 0 0 0 40 0 0 0 0 0
0 0 0 14 0 0 0 0 0 0 0 0 60 0 0 0 38 0 0 0 0 0 0 0 39 0 0 0 77 42 0 0 75 0 0 0 0 0 0 0 0 0 0 84 0 94 0 0 0 0 0 0 0 0 80 0 0 0 0 0 42 0 67 0 0 58 0 0 0 27 0 0 0 0 0 0 0 17 0 13 0 0 0 0 0 0 98 55 0 0 0 0 0 0 13 0 0 0 0 0 0 0 8 0 80 0 0 0 0 0 0 0 0 0 0 0 64 0 0 86 0 0 0 0 44 61 0 0 0 0 0 0 0 14 0 0 0 0 0 0 0 0 0 0 2 0 0 0 0 27
0 0 66 23 0 0 0 56 0 0 0 0 0 0 0 0 0 9 0 0 0 0 14 0 0 40 0 0 0 0 0 0 0 0 0 0 0 0 0 0 0 0 87 99 0 0 0 56 0 0 0 0 0 0 0 0 0 95 0 0 0 0 0 0 0 0 0 0 0 0 0 0 0 0 0 0 0 28 0 0 0 0 54 99 0 0 0 0 0 0 85 0 0 0 0 0 0 0 0 80 0 14 0 0 58 0 70 0 46 32 0 0 0 0 0 0 0 4 79 0 0 0 0 15 0 0 0 26 0 0 0 95 0 0 0 47 0 0 0 97 0 0 0 0 40 0 0 0 0 0
0 62 0 0 0 0 0 62 0 0 0 58 0 0 0 0 0 0 0 0 50 86 0 0 0 0 2 30 0 0 0 0 0 61 0 0 31 0 0 0 0 0 0 0 0 0 0 0 0 72 24 0 0 0 32 0 0 0 0 0 94 0 0 0 63 48 0 0 0 0 0 0 0 0 0 60 87 0 0 0 0 52 0 0 0 0 0 0 6 0 86 18 0 0 0 0 36 0 0 0 0 19 0 0 0 45 0 0 0 0 0 0 0 0 0 0 0 0 0 64 0 0 0 0 5 0 0 0 0 0 0 0 0 0 0 0 61 0 0 0 0 0 0 0 5 0 0 0 0 58
0 0 0 0 0 0 0 0 0 0 0 0 0 0 0 0 0 0 0 0 0 0 0 0 0 67 0 1 0 0 23 0 0 0 9 0 33 0 0 17 10 0 0 42 0 0 0 0 0 0 60 0 0 0 0 0 0 0 0 44 0 0 0 0 0 0 0 0 0 0 0 0 78 95 59 0 0 0 22 0 0 0 27 0 86 19 0 0 0 0 0 0 0 0 0 0 28 0 0 0 0 0 0 0 0 42 0 0 0 0 0 65 0 0 0 0 0 0 0 0 0 0 0 0 0 0 0 0 0 0 0 0 0 0 0 0 0 0 0 52 0 0 0 3 0 0 0 0 0 27
0 0 0 0 0 0 0 0 0 0 0 0 0 0 75 0 0 0 0 0 0 0 0 0 0 72 0 0 0 98 30 0 0 0 0 0 0 43 0 0 0 0 0 0 0 0 0 0 89 0 0 1 0 0 0 0 0 0 0 0 0 0 0 0 0 90 0 0 0 90 0 0 0 0 0 0 0 0 32 0 0 0 0 65 0 0 0 0 0 0 0 0 0 68 0 0 0 0 0 0 0 97 0 0 0 0 0 0 0 0 0 0 0 0 37 0 0 0 0 0 0 0 96 0 0 0 0 0 46 51 0 0 0 0 0 80 0 0 0 0 0 0 9 0 0 0 0 0 0 0
0 0 0 0 0 0 55 0 0 0 69 0 12 0 0 0 0 0 0 0 0 0 36 0 0 0 0 0 0 0 0 0 49 0 0 0 0 0 0 0 0 0 0 0 0 0 0 0 11 0 0 0 36 0 0 0 0 0 66 0 0 0 0 0 0 0 0 0 0 0 0 0 0 0 0 0 0 0 0 0 0 0 0 24 0 0 36 0 0 0 0 0 0 0 0 0 0 4 0 0 0 23 0 3 0 61 0 0 0 0 0 0 0 0 0 0 0 0 8 0 0 0 0 0 0 0 0 0 0 0 0 0 0 0 25 0 0 0 0 0 0 0 0 0 0 0 0 0 0 0
0 0 0 0 0 0 0 0 0 0 0 0 0 0 20 0 0 0 0 0 0 0 0 0 0 0 0 0 0 0 0 0 0 0 44 0 0 0 0 0 0 0 0 0 16 0 0 0 0 0 0 39 0 0 0 19 57 0 0 0 24 0 10 0 7 0 0 0 0 0 0 0 0 26 0 0 0 0 0 0 0 0 0 0 0 0 0 0 0 0 0 0 0 0 0 0 0 0 0 0 25 0 3 0 0 0 0 0 0 0 0 0 0 0 0 0 0 0 0 6 0 0 0 0 0 0 0 0 20 43 0 0 36 59 0 0 41 0 0 0 0 0 0 0 0 0 0 0 0 0
21 14 0 11 0 1 1 0 0 0 0 0 0 0 0 0 0 15 29 0 0 5 0 0 32 0 0 0 63 22 0 0 0 0 0 0 0 41 0 0 0 0 0 0 0 0 0 0 0 0 0 0 0 0 0 0 0 0 0 0 0 0 35 0 0 0 15 0 0 0 0 0 0 0 0 0 0 0 0 0 1 0 0 0 0 0 19 36 0 0 0 29 0 0 0 5 0 0 0 0 0 0 0 0 0 0 0 0 0 0 0 0 0 0 0 0 0 8 0 0 13 0 63 0 0 1 0 0 0 0 0 0 0 0 0 0 0 0 0 0 0 0 0 0 0 0 0 0 0 0
0 23 0 0 0 0 57 0 0 0 0 2 0 10 0 0 0 0 53 0 0 54 0 0 0 0 0 0 0 0 0 0 0 0 0 0 12 0 2 0 5 39 0 0 0 0 0 0 16 0 0 0 0 0 0 9 0 0 0 0 0 0 0 0 0 0 0 0 0 0 0 0 0 0 0 0 0 0 0 0 0 0 0 0 0 0 0 0 0 0 0 0 0 0 0 0 0 0 0 0 29 0 12 5 0 0 0 0 0 10 0 0 0 0 25 0 0 0 0 0 0 0 0 0 0 0 0 33 0 0 0 46 0 0 0 0 0 0 0 2 0 0 0 0 0 0 0 0 0 0
0 0 0 0 10 0 0 0 0 46 0 0 0 0 0 0 0 0 0 0 0 0 0 46 0 0 0 22 0 0 0 0 0 0 43 0 0 0 0 31 0 0 0 50 7 0 0 1 24 0 0 0 0 0 9 0 6 0 0 0 0 0 0 3 0 0 0 0 12 0 1 0 0 0 0 35 9 0 0 0 0 0 0 16 14 0 34 0 0 0 0 0 35 0 0 0 10 25 0 3 0 0 28 0 21 0 0 0 83 0 0 33 0 0 0 0 0 0 68 0 0 0 0 0 0 0 0 0 0 0 0 0 5 0 0 0 0 0 0 0 8 0 0 0 13 0 0 0 0 0
0 0 0 9 0 0 0 0 0 0 0 0 30 0 0 0 29 0 0 0 0 0 0 0 22 0 0 0 73 33 0 0 16 0 0 0 0 0 0 0 0 0 0 55 0 37 0 0 0 0 0 0 0 0 11 0 0 0 0 0 38 0 19 0 0 19 0 0 0 17 0 0 0 0 0 0 0 14 0 5 0 0 0 0 0 0 23 30 0 0 0 0 0 0 0 0 0 0 0 0 0 0 0 0 2 0 0 0 0 0 0 0 0 0 0 0 29 0 0 36 0 0 0 0 33 3 0 0 0 0 0 0 0 4 0 0 0 0 0 0 0 0 0 0 1 0 0 0 0 22
0 0 27 5 0 0 0 54 0 0 0 0 0 0 0 0 0 4 0 0 0 0 13 0 0 26 0 0 0 0 0 0 0 0 0 0 0 0 0 0 0 0 22 65 0 0 0 41 0 0 0 0 0 0 0 0 0 70 0 0 0 0 0 0 0 0 0 0 0 0 0 0 0 0 0 0 0 27 0 0 0 0 1 16 0 0 0 0 0 0 49 0 0 0 0 0 0 0 0 56 0 7 0 0 25 0 64 0 15 14 0 0 0 0 0 0 0 2 49 0 0 0 0 14 0 0 0 8 0 0 0 53 0 0 0 23 0 0 0 16 0 0 0 0 3 0 0 0 0 0
0 57 0 0 0 0 0 43 0 0 0 1 0 0 0 0 0 0 0 0 3 8 0 0 0 0 1 9 0 0 0 0 0 47 0 0 26 0 0 0 0 0 0 0 0 0 0 0 0 37 2 0 0 0 2 0 0 0 0 0 79 0 0 0 1 7 0 0 0 0 0 0 0 0 0 18 59 0 0 0 0 37 0 0 0 0 0 0 3 0 11 0 0 0 0 0 21 0 0 0 0 16 0 0 0 18 0 0 0 0 0 0 0 0 0 0 0 0 0 15 0 0 0 0 4 0 0 0 0 0 0 0 0 0 0 0 28 0 0 0 0 0 0 0 3 0 0 0 0 53
0 0 0 0 0 0 0 0 0 0 0 0 0 0 0 0 0 0 0 0 0 0 0 0 0 64 0 0 0 0 17 0 0 0 6 0 15 0 0 5 1 0 0 33 0 0 0 0 0 0 50 0 0 0 0 0 0 0 0 3 0 0 0 0 0 0 0 0 0 0 0 0 44 4 50 0 0 0 12 0 0 0 24 0 79 3 0 0 0 0 0 0 0 0 0 0 23 0 0 0 0 0 0 0 0 20 0 0 0 0 0 27 0 0 0 0 0 0 0 0 0 0 0 0 0 0 0 0 0 0 0 0 0 0 0 0 0 0 0 38 0 0 0 0 0 0 0 0 0 11
0 0 0 0 0 0 0 0 0 0 0 0 0 0 38 0 0 0 0 0 0 0 0 0 0 22 0 0 0 25 19 0 0 0 0 0 0 1 0 0 0 0 0 0 0 0 0 0 82 0 0 0 0 0 0 0 0 0 0 0 0 0 0 0 0 69 0 0 0 51 0 0 0 0 0 0 0 0 10 0 0 0 0 61 0 0 0 0 0 0 0 0 0 50 0 0 0 0 0 0 0 1 0 0 0 0 0 0 0 0 0 0 0 0 18 0 0 0 0 0 0 0 23 0 0 0 0 0 7 26 0 0 0 0 0 0 0 0 0 0 0 0 6 0 0 0 0 0 0 0
